! wB97X-D3BJ def2-TZVP SP Grid4 TightSCF 

%pal
    nprocs 4
end

*xyz -1 1
C  1.090336  0.071690  2.651560
O  0.141258 -0.444662  2.000159
O  2.209629  0.437665  2.295140
B  0.044227  0.147203  5.808910
H -0.469852 -0.853111  6.239891
H  1.248869  0.238592  5.802636
H -0.607371  1.163798  5.716650
H  0.844574  0.216901  3.779219
O -1.673959 -0.617949  3.834059
H -1.009273 -0.661898  3.067365
H -1.830463  0.333647  3.888137
*
